p cnf 301 1096
c max 4 5 6 7 8 9 10 11 12 13 14 15 16 17 18 19 20 21 22 23 24 25 26 27 28 29 30 31 32 33 34 35 107 108 109 110 111 112 113 114 115 116 117 118 119 120 121 122 139 140 141 142 143 144 145 146 147 148 149 150 151 152 153 154 242 243 244 245 246 247 248 249 250 251 252 253 254 255 256 257 258 259 260 261 262 263 264 265 266 267 268 269 270 271 272 273 274 275 276 280 281 282 286 287 288 290 291 292 296 297 301 0
c ind 1 2 3 36 37 38 39 40 41 42 43 44 45 46 47 48 49 50 51 52 53 54 55 56 57 58 59 60 61 62 63 64 65 66 67 68 69 70 71 72 73 74 75 76 77 78 79 80 81 82 83 84 85 86 87 88 89 90 91 92 93 94 95 96 97 98 99 100 101 102 103 104 105 123 124 125 126 127 128 129 130 131 132 133 134 135 136 137 138 155 156 157 158 159 160 161 162 163 164 165 166 167 168 169 170 171 172 173 174 175 176 177 178 179 180 181 182 183 184 185 186 187 188 189 190 191 192 193 194 195 196 197 198 199 200 201 202 203 204 205 206 207 208 209 210 211 212 213 214 215 216 217 218 219 220 221 222 223 224 226 227 228 229 230 231 232 233 234 235 236 237 238 239 240 241 277 278 279 283 284 285 289 293 294 295 300 0
3 0
105 0
-106 0
224 0
-225 0
-298 0
-299 0
300 0
-102 -70 0
-102 -71 0
-102 -72 0
-102 -73 0
-102 -74 0
-102 -75 0
-102 -76 0
-102 -77 0
-102 -78 0
-102 -79 0
-102 -81 0
-102 -82 0
-102 -83 0
-102 -84 0
-221 -190 0
-221 -191 0
-221 -192 0
-221 -193 0
-221 -194 0
-221 -195 0
-221 -196 0
-221 -197 0
-221 -198 0
-221 -199 0
-221 -200 0
-221 -201 0
-221 -202 0
-221 -203 0
18 154 -168 221 290 291 292 0
-7 -142 -192 0
8 -143 193 0
-6 141 191 0
-17 -152 -202 0
-14 45 -46 0
5 140 -190 0
-11 -27 -77 0
-14 -149 -199 0
-14 149 -165 0
14 -30 -102 0
-15 46 -47 0
-5 -140 -190 0
14 -149 199 0
-6 -141 -191 0
6 -22 72 0
-7 157 -158 0
9 -25 75 0
-20 -21 37 0
-7 -23 -73 0
-7 23 73 0
4 -139 -221 0
6 -156 157 0
-146 -161 162 0
-19 154 290 291 292 0
17 152 -202 0
-26 -41 42 0
5 -21 71 0
6 -37 38 0
-145 -160 161 0
-9 40 -41 0
4 -19 139 -154 190 191 192 193 194 195 196 197 198 199 200 201 202 203 221 0
-15 -150 -200 0
-13 29 79 0
-13 148 -164 0
-19 -34 -49 102 286 287 288 0
-7 142 -158 0
-14 30 -46 0
-6 22 72 0
-5 21 71 0
11 -161 162 0
-152 -167 168 0
4 -21 37 0
-18 153 203 0
-16 166 -167 0
7 -157 158 0
-15 165 -166 0
17 -167 168 0
-4 20 21 -37 0
-4 19 -139 154 190 191 192 193 194 195 196 197 198 199 200 201 202 203 221 0
-17 167 -168 0
-12 147 197 0
16 -166 167 0
-142 -157 158 0
14 -164 165 0
-19 35 286 287 288 0
-143 -158 159 0
19 -35 -102 0
141 156 -157 0
-10 26 76 0
-9 25 75 0
-17 33 83 0
-8 39 -40 0
11 -146 162 0
-5 140 -156 0
-8 24 -40 0
9 25 -75 0
-13 44 -45 0
-9 25 -41 0
-17 48 -49 0
-151 -166 167 0
10 -145 161 0
17 -33 83 0
143 158 -159 0
10 -41 42 0
148 163 -164 0
-12 28 -44 0
-7 142 192 0
18 -153 154 290 291 292 0
18 -34 35 286 287 288 0
31 46 -47 0
-12 -28 -78 0
6 141 -191 0
-14 149 199 0
-10 145 -161 0
13 29 -79 0
-12 147 -163 0
14 -30 46 0
18 -19 -34 286 287 288 0
30 45 -46 0
15 150 -200 0
-30 -45 46 0
150 165 -166 0
-9 159 -160 0
-150 -165 166 0
18 153 -203 0
8 -39 40 0
-13 148 198 0
-15 31 81 0
9 -144 160 0
10 26 -76 0
17 -33 49 0
-148 -163 164 0
147 162 -163 0
8 24 -74 0
-23 -38 39 0
5 -139 156 0
-149 -164 165 0
-4 20 70 0
25 40 -41 0
15 -31 81 0
-16 151 201 0
-8 143 -159 0
4 -20 70 0
17 -152 202 0
9 -25 41 0
8 -24 74 0
-6 37 -38 0
16 -151 167 0
-18 -153 -203 0
-15 31 -47 0
16 -32 82 0
12 28 -78 0
7 -142 158 0
15 -31 47 0
10 -145 195 0
146 161 -162 0
7 -142 192 0
-9 144 -160 0
8 143 -193 0
-147 -162 163 0
32 47 -48 0
-13 29 -45 0
27 42 -43 0
24 39 -40 0
5 -20 37 0
7 23 -73 0
-29 -44 45 0
6 -141 157 0
-33 -48 49 0
12 -147 197 0
-6 156 -157 0
-12 43 -44 0
-24 -39 40 0
-10 26 -42 0
7 -38 39 0
13 -148 198 0
-27 -42 43 0
-9 144 194 0
18 -34 84 0
-10 145 195 0
-28 -43 44 0
-9 -144 -194 0
-12 28 78 0
-8 158 -159 0
18 34 -84 0
-6 22 -38 0
26 41 -42 0
-13 163 -164 0
-19 -153 -168 221 290 291 292 0
10 -26 76 0
6 22 -72 0
7 -23 73 0
-4 139 140 -156 0
-15 -31 -81 0
17 33 -83 0
-16 32 82 0
11 -27 43 0
12 -43 44 0
18 35 -49 102 286 287 288 0
-6 141 -157 0
12 147 -197 0
29 44 -45 0
11 -27 77 0
152 167 -168 0
-9 -25 -75 0
-5 21 -37 0
-15 150 200 0
-10 160 -161 0
-4 -5 139 -156 0
-22 -37 38 0
17 -48 49 0
-17 152 -168 0
-14 164 -165 0
-34 35 -49 102 286 287 288 0
16 151 -201 0
-10 41 -42 0
14 19 30 35 70 71 72 73 74 75 76 77 78 79 81 82 83 84 102 0
-11 27 77 0
16 -47 48 0
-5 140 190 0
-17 152 202 0
11 27 -77 0
142 157 -158 0
145 160 -161 0
19 -154 -221 0
-11 42 -43 0
14 149 -199 0
-17 -33 -83 0
14 -45 46 0
4 5 156 0
18 -19 -168 221 290 291 292 0
28 43 -44 0
12 -28 44 0
8 -24 40 0
10 -26 42 0
11 -146 196 0
-12 -147 -197 0
-14 -19 -30 -35 70 71 72 73 74 75 76 77 78 79 81 82 83 84 102 0
-4 -19 -139 -154 190 191 192 193 194 195 196 197 198 199 200 201 202 203 221 0
-7 23 -39 0
18 -19 -153 290 291 292 0
14 -19 30 -35 70 71 72 73 74 75 76 77 78 79 81 82 83 84 102 0
-13 -29 -79 0
11 146 -196 0
9 -40 41 0
12 -28 78 0
-10 -26 -76 0
4 -140 156 0
-18 -34 -84 0
13 -163 164 0
23 38 -39 0
-15 150 -166 0
17 -152 168 0
-8 -143 -193 0
5 21 -71 0
-144 -159 160 0
7 -23 39 0
-153 154 -168 221 290 291 292 0
22 37 -38 0
-16 -151 -201 0
149 164 -165 0
15 31 -81 0
-10 -145 -195 0
-13 -148 -198 0
-8 143 193 0
-141 -156 157 0
5 -21 37 0
-16 32 -48 0
6 -141 191 0
5 -140 156 0
151 166 -167 0
-6 -22 -72 0
-14 30 -102 0
-32 -47 48 0
13 -29 45 0
10 145 -195 0
5 -140 190 0
-12 162 -163 0
9 -144 194 0
-18 34 84 0
-4 -20 -70 0
4 19 139 154 190 191 192 193 194 195 196 197 198 199 200 201 202 203 221 0
10 -160 161 0
-31 -46 47 0
15 -150 166 0
-11 146 -162 0
-19 154 -221 0
13 -29 79 0
15 -46 47 0
15 -150 200 0
7 142 -192 0
9 144 -194 0
-8 -24 -74 0
9 -159 160 0
8 -158 159 0
-8 24 74 0
16 32 -82 0
-25 -40 41 0
144 159 -160 0
-19 35 -102 0
16 -32 48 0
-4 -5 20 -37 0
8 -143 159 0
33 48 -49 0
12 -162 163 0
-17 33 -49 0
18 -19 -49 102 286 287 288 0
-11 161 -162 0
-7 38 -39 0
-16 -32 -82 0
18 -153 203 0
-11 27 -43 0
-139 -140 156 0
13 148 -198 0
14 -149 165 0
-16 151 -167 0
-5 -21 -71 0
4 5 37 0
6 -22 38 0
13 -44 45 0
16 -151 201 0
11 -42 43 0
-14 19 -30 35 70 71 72 73 74 75 76 77 78 79 81 82 83 84 102 0
-4 139 -221 0
12 -147 163 0
4 20 -70 0
-11 -146 -196 0
-16 47 -48 0
-11 146 196 0
13 -148 164 0
15 -165 166 0
-2 -4 226 0
2 -139 226 0
2 139 -226 0
-2 4 -226 0
-2 -5 227 0
2 -140 227 0
2 140 -227 0
-2 5 -227 0
-2 -6 228 0
2 -141 228 0
-2 6 -228 0
2 141 -228 0
2 -142 229 0
-2 -7 229 0
2 142 -229 0
-2 7 -229 0
-2 -8 230 0
2 -143 230 0
2 143 -230 0
-2 8 -230 0
-2 -9 231 0
2 -144 231 0
-2 9 -231 0
2 144 -231 0
-2 -10 232 0
2 -145 232 0
2 145 -232 0
-2 10 -232 0
2 -146 233 0
-2 -11 233 0
-2 11 -233 0
2 146 -233 0
-2 -12 234 0
2 -147 234 0
2 147 -234 0
-2 12 -234 0
-2 -13 235 0
2 -148 235 0
-2 13 -235 0
2 148 -235 0
-2 -14 236 0
2 -149 236 0
2 149 -236 0
-2 14 -236 0
-2 -15 237 0
2 -150 237 0
2 150 -237 0
-2 15 -237 0
2 -151 238 0
-2 -16 238 0
2 151 -238 0
-2 16 -238 0
2 -152 239 0
-2 -17 239 0
2 152 -239 0
-2 17 -239 0
-2 -18 240 0
2 -153 240 0
2 153 -240 0
-2 18 -240 0
2 -154 241 0
-2 -19 241 0
-2 19 -241 0
2 154 -241 0
274 277 -286 0
-274 277 286 0
274 -277 286 0
-274 -277 -286 0
275 278 -287 0
-275 278 287 0
275 -278 287 0
-275 -278 -287 0
-276 279 288 0
276 279 -288 0
-276 -279 -288 0
276 -279 288 0
280 283 -290 0
-280 283 290 0
-280 -283 -290 0
280 -283 290 0
-281 284 291 0
281 284 -291 0
-281 -284 -291 0
281 -284 291 0
282 285 -292 0
-282 285 292 0
282 -285 292 0
-282 -285 -292 0
294 -296 0
-294 296 0
295 -297 0
-295 297 0
2 222 0
-2 -222 0
-1 -4 123 0
1 -20 123 0
1 20 -123 0
-1 4 -123 0
-1 -5 124 0
1 -21 124 0
1 21 -124 0
-1 5 -124 0
1 -22 125 0
-1 -6 125 0
-1 6 -125 0
1 22 -125 0
1 -23 126 0
-1 -7 126 0
1 23 -126 0
-1 7 -126 0
-1 -8 127 0
1 -24 127 0
-1 8 -127 0
1 24 -127 0
1 -25 128 0
-1 -9 128 0
1 25 -128 0
-1 9 -128 0
-1 -10 129 0
1 -26 129 0
1 26 -129 0
-1 10 -129 0
1 -27 130 0
-1 -11 130 0
1 27 -130 0
-1 11 -130 0
-1 -12 131 0
1 -28 131 0
1 28 -131 0
-1 12 -131 0
-1 -13 132 0
1 -29 132 0
1 29 -132 0
-1 13 -132 0
1 -30 133 0
-1 -14 133 0
-1 14 -133 0
1 30 -133 0
1 -31 134 0
-1 -15 134 0
1 31 -134 0
-1 15 -134 0
-1 -16 135 0
1 -32 135 0
1 32 -135 0
-1 16 -135 0
-1 -17 136 0
1 -33 136 0
-1 17 -136 0
1 33 -136 0
-1 -18 137 0
1 -34 137 0
-1 18 -137 0
1 34 -137 0
-1 -19 138 0
1 -35 138 0
1 35 -138 0
-1 19 -138 0
1 103 0
-1 -103 0
104 -289 0
-104 103 0
-104 289 0
223 -293 0
-223 222 0
-223 293 0
222 -221 0
222 -188 0
222 -293 0
188 221 -222 0
103 -102 0
103 -69 0
103 -289 0
69 102 -103 0
286 287 288 289 0
-289 -288 0
-289 -286 0
-289 -287 0
69 102 -289 0
290 291 292 293 0
-293 -292 0
-293 -290 0
-293 -291 0
188 221 -293 0
-67 -68 69 0
67 68 69 0
69 102 286 287 288 0
-67 68 -69 0
67 -68 -69 0
186 187 188 0
-186 -187 188 0
188 221 290 291 292 0
-186 187 -188 0
186 -187 -188 0
-19 35 68 0
19 -35 68 0
-67 68 102 286 287 288 0
-19 -35 -68 0
19 35 -68 0
67 -68 102 286 287 288 0
-19 154 187 0
19 -154 187 0
-186 187 221 290 291 292 0
-19 -154 -187 0
19 154 -187 0
186 -187 221 290 291 292 0
21 36 -37 0
-5 36 -37 0
36 4 0
36 -20 0
-21 -36 37 0
5 -36 37 0
-4 20 -36 0
-5 155 -156 0
140 155 -156 0
155 -139 0
155 4 0
-140 -155 156 0
5 -155 156 0
-4 139 -155 0
19 -66 67 0
-35 -66 67 0
19 -35 67 0
35 66 -67 0
-19 66 -67 0
-19 35 -67 0
35 -67 102 286 287 288 0
-19 -67 102 286 287 288 0
-19 -185 186 0
154 -185 186 0
19 -154 186 0
154 185 -186 0
-19 185 -186 0
-19 154 -186 0
154 -186 221 290 291 292 0
-19 -186 221 290 291 292 0
35 -65 66 0
-19 -65 66 0
19 -35 66 0
35 65 -66 0
-19 65 -66 0
-19 35 -66 0
-19 -66 102 286 287 288 0
35 -66 102 286 287 288 0
154 -184 185 0
-19 -184 185 0
19 -154 185 0
-19 184 -185 0
154 184 -185 0
-19 -185 221 290 291 292 0
-19 154 -185 0
154 -185 221 290 291 292 0
35 -64 65 0
-19 -64 65 0
19 -35 65 0
-19 64 -65 0
35 64 -65 0
-19 -65 102 286 287 288 0
-19 35 -65 0
35 -65 102 286 287 288 0
154 -183 184 0
-19 -183 184 0
19 -154 184 0
-19 183 -184 0
154 183 -184 0
-19 -184 221 290 291 292 0
-19 154 -184 0
154 -184 221 290 291 292 0
35 -63 64 0
-19 -63 64 0
19 -35 64 0
-19 63 -64 0
35 63 -64 0
-19 -64 102 286 287 288 0
-19 35 -64 0
35 -64 102 286 287 288 0
154 -182 183 0
-19 -182 183 0
19 -154 183 0
154 182 -183 0
-19 182 -183 0
-19 -183 221 290 291 292 0
-19 154 -183 0
154 -183 221 290 291 292 0
-19 -62 63 0
35 -62 63 0
19 -35 63 0
-19 62 -63 0
35 62 -63 0
-19 -63 102 286 287 288 0
-19 35 -63 0
35 -63 102 286 287 288 0
-19 -181 182 0
154 -181 182 0
19 -154 182 0
154 181 -182 0
-19 181 -182 0
-19 -182 221 290 291 292 0
-19 154 -182 0
154 -182 221 290 291 292 0
35 -61 62 0
-19 -61 62 0
19 -35 62 0
-19 61 -62 0
35 61 -62 0
-19 -62 102 286 287 288 0
-19 35 -62 0
35 -62 102 286 287 288 0
154 -180 181 0
-19 -180 181 0
19 -154 181 0
-19 180 -181 0
154 180 -181 0
-19 -181 221 290 291 292 0
-19 154 -181 0
154 -181 221 290 291 292 0
35 -60 61 0
-19 -60 61 0
19 -35 61 0
-19 60 -61 0
35 60 -61 0
-19 -61 102 286 287 288 0
-19 35 -61 0
35 -61 102 286 287 288 0
154 -179 180 0
-19 -179 180 0
19 -154 180 0
-19 179 -180 0
154 179 -180 0
-19 -180 221 290 291 292 0
-19 154 -180 0
154 -180 221 290 291 292 0
35 -59 60 0
-19 -59 60 0
19 -35 60 0
-19 59 -60 0
35 59 -60 0
-19 -60 102 286 287 288 0
-19 35 -60 0
35 -60 102 286 287 288 0
154 -178 179 0
-19 -178 179 0
19 -154 179 0
-19 178 -179 0
154 178 -179 0
-19 -179 221 290 291 292 0
-19 154 -179 0
154 -179 221 290 291 292 0
-19 -58 59 0
35 -58 59 0
19 -35 59 0
35 58 -59 0
-19 58 -59 0
-19 -59 102 286 287 288 0
-19 35 -59 0
35 -59 102 286 287 288 0
154 -177 178 0
-19 -177 178 0
19 -154 178 0
-19 177 -178 0
154 177 -178 0
-19 -178 221 290 291 292 0
-19 154 -178 0
154 -178 221 290 291 292 0
35 -57 58 0
-19 -57 58 0
19 -35 58 0
-19 57 -58 0
35 57 -58 0
-19 -58 102 286 287 288 0
-19 35 -58 0
35 -58 102 286 287 288 0
154 -176 177 0
-19 -176 177 0
19 -154 177 0
154 176 -177 0
-19 176 -177 0
-19 -177 221 290 291 292 0
-19 154 -177 0
154 -177 221 290 291 292 0
35 -56 57 0
-19 -56 57 0
19 -35 57 0
35 56 -57 0
-19 56 -57 0
-19 -57 102 286 287 288 0
-19 35 -57 0
35 -57 102 286 287 288 0
154 -175 176 0
-19 -175 176 0
19 -154 176 0
-19 175 -176 0
154 175 -176 0
-19 -176 221 290 291 292 0
-19 154 -176 0
154 -176 221 290 291 292 0
-19 -55 56 0
35 -55 56 0
19 -35 56 0
35 55 -56 0
-19 55 -56 0
-19 -56 102 286 287 288 0
-19 35 -56 0
35 -56 102 286 287 288 0
-19 -174 175 0
154 -174 175 0
19 -154 175 0
-19 174 -175 0
154 174 -175 0
-19 -175 221 290 291 292 0
-19 154 -175 0
154 -175 221 290 291 292 0
35 -54 55 0
-19 -54 55 0
19 -35 55 0
-19 54 -55 0
35 54 -55 0
-19 -55 102 286 287 288 0
-19 35 -55 0
35 -55 102 286 287 288 0
-19 -173 174 0
154 -173 174 0
19 -154 174 0
154 173 -174 0
-19 173 -174 0
-19 -174 221 290 291 292 0
-19 154 -174 0
154 -174 221 290 291 292 0
35 -53 54 0
-19 -53 54 0
19 -35 54 0
35 53 -54 0
-19 53 -54 0
-19 -54 102 286 287 288 0
-19 35 -54 0
35 -54 102 286 287 288 0
-19 -172 173 0
154 -172 173 0
19 -154 173 0
154 172 -173 0
-19 172 -173 0
-19 -173 221 290 291 292 0
-19 154 -173 0
154 -173 221 290 291 292 0
-19 -52 53 0
35 -52 53 0
19 -35 53 0
35 52 -53 0
-19 52 -53 0
-19 -53 102 286 287 288 0
-19 35 -53 0
35 -53 102 286 287 288 0
154 -171 172 0
-19 -171 172 0
19 -154 172 0
154 171 -172 0
-19 171 -172 0
-19 -172 221 290 291 292 0
-19 154 -172 0
154 -172 221 290 291 292 0
35 -51 52 0
-19 -51 52 0
19 -35 52 0
-19 51 -52 0
35 51 -52 0
-19 -52 102 286 287 288 0
-19 35 -52 0
35 -52 102 286 287 288 0
-19 -170 171 0
154 -170 171 0
19 -154 171 0
-19 170 -171 0
154 170 -171 0
-19 -171 221 290 291 292 0
-19 154 -171 0
154 -171 221 290 291 292 0
-35 -50 51 0
19 -50 51 0
19 -35 51 0
35 50 -51 0
-19 50 -51 0
-19 -51 102 286 287 288 0
-19 35 -51 0
35 -51 102 286 287 288 0
19 -169 170 0
-154 -169 170 0
19 -154 170 0
154 169 -170 0
-19 169 -170 0
-19 -170 221 290 291 292 0
-19 154 -170 0
154 -170 221 290 291 292 0
18 -49 50 0
-34 -49 50 0
18 -34 50 0
34 49 -50 0
-18 49 -50 0
-18 34 -50 0
-19 -50 102 286 287 288 0
35 -50 102 286 287 288 0
18 -168 169 0
-153 -168 169 0
18 -153 169 0
-18 168 -169 0
153 168 -169 0
-18 153 -169 0
-19 -169 221 290 291 292 0
154 -169 221 290 291 292 0
97 -93 0
19 -35 97 0
-19 35 97 0
-97 93 0
-97 -102 0
19 35 -97 0
-19 -35 -97 0
85 -93 0
-19 35 85 0
19 -35 85 0
-85 93 0
-85 -102 0
19 35 -85 0
-19 -35 -85 0
86 -93 0
19 -35 86 0
-19 35 86 0
-86 93 0
-86 -102 0
19 35 -86 0
-19 -35 -86 0
88 -93 0
-19 35 88 0
19 -35 88 0
-88 93 0
-88 -102 0
19 35 -88 0
-19 -35 -88 0
89 -93 0
19 -35 89 0
-19 35 89 0
-89 93 0
-89 -102 0
-19 -35 -89 0
19 35 -89 0
90 -93 0
19 -35 90 0
-19 35 90 0
-90 93 0
-90 -102 0
-19 -35 -90 0
19 35 -90 0
87 -93 0
-19 35 87 0
19 -35 87 0
-87 93 0
-87 -102 0
-19 -35 -87 0
19 35 -87 0
91 -93 0
19 -35 91 0
-19 35 91 0
-91 93 0
-91 -102 0
-19 -35 -91 0
19 35 -91 0
92 -93 0
-19 35 92 0
19 -35 92 0
-92 93 0
-92 -102 0
-19 -35 -92 0
19 35 -92 0
217 -212 0
19 -154 217 0
-19 154 217 0
-217 212 0
-217 -221 0
19 154 -217 0
-19 -154 -217 0
204 -212 0
19 -154 204 0
-19 154 204 0
-204 212 0
-204 -221 0
-19 -154 -204 0
19 154 -204 0
205 -212 0
19 -154 205 0
-19 154 205 0
-205 212 0
-205 -221 0
19 154 -205 0
-19 -154 -205 0
207 -212 0
19 -154 207 0
-19 154 207 0
-207 212 0
-207 -221 0
-19 -154 -207 0
19 154 -207 0
211 -212 0
-19 154 211 0
19 -154 211 0
-211 212 0
-211 -221 0
-19 -154 -211 0
19 154 -211 0
209 -212 0
-19 154 209 0
19 -154 209 0
-209 212 0
-209 -221 0
19 154 -209 0
-19 -154 -209 0
210 -212 0
-19 154 210 0
19 -154 210 0
-210 212 0
-210 -221 0
19 154 -210 0
-19 -154 -210 0
206 -212 0
19 -154 206 0
-19 154 206 0
-206 212 0
-206 -221 0
-19 -154 -206 0
19 154 -206 0
208 -212 0
-19 154 208 0
19 -154 208 0
-208 212 0
-208 -221 0
19 154 -208 0
-19 -154 -208 0
215 -212 0
19 -154 215 0
-19 154 215 0
-215 212 0
-215 -221 0
-19 -154 -215 0
19 154 -215 0
213 -212 0
-19 154 213 0
19 -154 213 0
-213 212 0
-213 -221 0
19 154 -213 0
-19 -154 -213 0
219 -212 0
19 -154 219 0
-19 154 219 0
-219 212 0
-219 -221 0
19 154 -219 0
-19 -154 -219 0
100 -93 0
19 -35 100 0
-19 35 100 0
-100 93 0
-100 -102 0
19 35 -100 0
-19 -35 -100 0
216 -212 0
19 -154 216 0
-19 154 216 0
-216 212 0
-216 -221 0
19 154 -216 0
-19 -154 -216 0
99 -93 0
-19 35 99 0
19 -35 99 0
-99 93 0
-99 -102 0
-19 -35 -99 0
19 35 -99 0
101 -93 0
19 -35 101 0
-19 35 101 0
-101 93 0
-101 -102 0
-19 -35 -101 0
19 35 -101 0
98 -93 0
-19 35 98 0
19 -35 98 0
-98 93 0
-98 -102 0
19 35 -98 0
-19 -35 -98 0
220 -212 0
-19 154 220 0
19 -154 220 0
-220 212 0
-220 -221 0
-19 -154 -220 0
19 154 -220 0
214 -212 0
19 -154 214 0
-19 154 214 0
-214 212 0
-214 -221 0
-19 -154 -214 0
19 154 -214 0
212 -218 0
-19 154 212 0
19 -154 212 0
-212 -221 0
-212 218 0
19 154 -212 0
-19 -154 -212 0
189 190 191 192 193 194 195 196 197 198 199 200 201 202 203 218 221 0
19 -154 218 0
-19 154 218 0
-218 -221 0
-19 -154 -218 0
19 154 -218 0
94 -93 0
-19 35 94 0
19 -35 94 0
-94 93 0
-94 -102 0
19 35 -94 0
-19 -35 -94 0
95 -93 0
-19 35 95 0
19 -35 95 0
-95 93 0
-95 -102 0
-19 -35 -95 0
19 35 -95 0
93 -96 0
19 -35 93 0
-19 35 93 0
-93 -102 0
-93 96 0
19 35 -93 0
-19 -35 -93 0
70 71 72 73 74 75 76 77 78 79 80 81 82 83 84 96 102 0
-19 35 96 0
19 -35 96 0
-96 -102 0
-19 -35 -96 0
19 35 -96 0
4 -139 189 0
-4 139 189 0
19 154 189 190 191 192 193 194 195 196 197 198 199 200 201 202 203 221 0
-19 -154 189 190 191 192 193 194 195 196 197 198 199 200 201 202 203 221 0
-189 -221 0
4 139 -189 0
-4 -139 -189 0
14 -30 80 0
-14 30 80 0
19 35 70 71 72 73 74 75 76 77 78 79 80 81 82 83 84 102 0
-19 -35 70 71 72 73 74 75 76 77 78 79 80 81 82 83 84 102 0
-80 -102 0
14 30 -80 0
-14 -30 -80 0
